\ Model Sudoku Problem
\ LP format - for model browsing. Use MPS format to capture full model detail.
Minimize
 
Subject To
 R0: x_1_1 + x_1_2 + x_1_3 + x_1_4 + x_1_5 + x_1_6 + x_1_7 + x_1_8 + x_1_9
   + x_1_10 + x_1_11 + x_1_12 + x_1_13 + x_1_14 + x_1_15 + x_1_16 + x_1_17
   + x_1_18 + x_1_19 + x_1_20 + x_1_21 + x_1_22 + x_1_23 + x_1_24 + x_1_25
   = 3.3554406e+07
 R1: x_2_1 + x_2_2 + x_2_3 + x_2_4 + x_2_5 + x_2_6 + x_2_7 + x_2_8 + x_2_9
   + x_2_10 + x_2_11 + x_2_12 + x_2_13 + x_2_14 + x_2_15 + x_2_16 + x_2_17
   + x_2_18 + x_2_19 + x_2_20 + x_2_21 + x_2_22 + x_2_23 + x_2_24 + x_2_25
   = 3.3554406e+07
 R2: x_3_1 + x_3_2 + x_3_3 + x_3_4 + x_3_5 + x_3_6 + x_3_7 + x_3_8 + x_3_9
   + x_3_10 + x_3_11 + x_3_12 + x_3_13 + x_3_14 + x_3_15 + x_3_16 + x_3_17
   + x_3_18 + x_3_19 + x_3_20 + x_3_21 + x_3_22 + x_3_23 + x_3_24 + x_3_25
   = 3.3554406e+07
 R3: x_4_1 + x_4_2 + x_4_3 + x_4_4 + x_4_5 + x_4_6 + x_4_7 + x_4_8 + x_4_9
   + x_4_10 + x_4_11 + x_4_12 + x_4_13 + x_4_14 + x_4_15 + x_4_16 + x_4_17
   + x_4_18 + x_4_19 + x_4_20 + x_4_21 + x_4_22 + x_4_23 + x_4_24 + x_4_25
   = 3.3554406e+07
 R4: x_5_1 + x_5_2 + x_5_3 + x_5_4 + x_5_5 + x_5_6 + x_5_7 + x_5_8 + x_5_9
   + x_5_10 + x_5_11 + x_5_12 + x_5_13 + x_5_14 + x_5_15 + x_5_16 + x_5_17
   + x_5_18 + x_5_19 + x_5_20 + x_5_21 + x_5_22 + x_5_23 + x_5_24 + x_5_25
   = 3.3554406e+07
 R5: x_6_1 + x_6_2 + x_6_3 + x_6_4 + x_6_5 + x_6_6 + x_6_7 + x_6_8 + x_6_9
   + x_6_10 + x_6_11 + x_6_12 + x_6_13 + x_6_14 + x_6_15 + x_6_16 + x_6_17
   + x_6_18 + x_6_19 + x_6_20 + x_6_21 + x_6_22 + x_6_23 + x_6_24 + x_6_25
   = 3.3554406e+07
 R6: x_7_1 + x_7_2 + x_7_3 + x_7_4 + x_7_5 + x_7_6 + x_7_7 + x_7_8 + x_7_9
   + x_7_10 + x_7_11 + x_7_12 + x_7_13 + x_7_14 + x_7_15 + x_7_16 + x_7_17
   + x_7_18 + x_7_19 + x_7_20 + x_7_21 + x_7_22 + x_7_23 + x_7_24 + x_7_25
   = 3.3554406e+07
 R7: x_8_1 + x_8_2 + x_8_3 + x_8_4 + x_8_5 + x_8_6 + x_8_7 + x_8_8 + x_8_9
   + x_8_10 + x_8_11 + x_8_12 + x_8_13 + x_8_14 + x_8_15 + x_8_16 + x_8_17
   + x_8_18 + x_8_19 + x_8_20 + x_8_21 + x_8_22 + x_8_23 + x_8_24 + x_8_25
   = 3.3554406e+07
 R8: x_9_1 + x_9_2 + x_9_3 + x_9_4 + x_9_5 + x_9_6 + x_9_7 + x_9_8 + x_9_9
   + x_9_10 + x_9_11 + x_9_12 + x_9_13 + x_9_14 + x_9_15 + x_9_16 + x_9_17
   + x_9_18 + x_9_19 + x_9_20 + x_9_21 + x_9_22 + x_9_23 + x_9_24 + x_9_25
   = 3.3554406e+07
 R9: x_10_1 + x_10_2 + x_10_3 + x_10_4 + x_10_5 + x_10_6 + x_10_7 + x_10_8
   + x_10_9 + x_10_10 + x_10_11 + x_10_12 + x_10_13 + x_10_14 + x_10_15
   + x_10_16 + x_10_17 + x_10_18 + x_10_19 + x_10_20 + x_10_21 + x_10_22
   + x_10_23 + x_10_24 + x_10_25 = 3.3554406e+07
 R10: x_11_1 + x_11_2 + x_11_3 + x_11_4 + x_11_5 + x_11_6 + x_11_7 + x_11_8
   + x_11_9 + x_11_10 + x_11_11 + x_11_12 + x_11_13 + x_11_14 + x_11_15
   + x_11_16 + x_11_17 + x_11_18 + x_11_19 + x_11_20 + x_11_21 + x_11_22
   + x_11_23 + x_11_24 + x_11_25 = 3.3554406e+07
 R11: x_12_1 + x_12_2 + x_12_3 + x_12_4 + x_12_5 + x_12_6 + x_12_7 + x_12_8
   + x_12_9 + x_12_10 + x_12_11 + x_12_12 + x_12_13 + x_12_14 + x_12_15
   + x_12_16 + x_12_17 + x_12_18 + x_12_19 + x_12_20 + x_12_21 + x_12_22
   + x_12_23 + x_12_24 + x_12_25 = 3.3554406e+07
 R12: x_13_1 + x_13_2 + x_13_3 + x_13_4 + x_13_5 + x_13_6 + x_13_7 + x_13_8
   + x_13_9 + x_13_10 + x_13_11 + x_13_12 + x_13_13 + x_13_14 + x_13_15
   + x_13_16 + x_13_17 + x_13_18 + x_13_19 + x_13_20 + x_13_21 + x_13_22
   + x_13_23 + x_13_24 + x_13_25 = 3.3554406e+07
 R13: x_14_1 + x_14_2 + x_14_3 + x_14_4 + x_14_5 + x_14_6 + x_14_7 + x_14_8
   + x_14_9 + x_14_10 + x_14_11 + x_14_12 + x_14_13 + x_14_14 + x_14_15
   + x_14_16 + x_14_17 + x_14_18 + x_14_19 + x_14_20 + x_14_21 + x_14_22
   + x_14_23 + x_14_24 + x_14_25 = 3.3554406e+07
 R14: x_15_1 + x_15_2 + x_15_3 + x_15_4 + x_15_5 + x_15_6 + x_15_7 + x_15_8
   + x_15_9 + x_15_10 + x_15_11 + x_15_12 + x_15_13 + x_15_14 + x_15_15
   + x_15_16 + x_15_17 + x_15_18 + x_15_19 + x_15_20 + x_15_21 + x_15_22
   + x_15_23 + x_15_24 + x_15_25 = 3.3554406e+07
 R15: x_16_1 + x_16_2 + x_16_3 + x_16_4 + x_16_5 + x_16_6 + x_16_7 + x_16_8
   + x_16_9 + x_16_10 + x_16_11 + x_16_12 + x_16_13 + x_16_14 + x_16_15
   + x_16_16 + x_16_17 + x_16_18 + x_16_19 + x_16_20 + x_16_21 + x_16_22
   + x_16_23 + x_16_24 + x_16_25 = 3.3554406e+07
 R16: x_17_1 + x_17_2 + x_17_3 + x_17_4 + x_17_5 + x_17_6 + x_17_7 + x_17_8
   + x_17_9 + x_17_10 + x_17_11 + x_17_12 + x_17_13 + x_17_14 + x_17_15
   + x_17_16 + x_17_17 + x_17_18 + x_17_19 + x_17_20 + x_17_21 + x_17_22
   + x_17_23 + x_17_24 + x_17_25 = 3.3554406e+07
 R17: x_18_1 + x_18_2 + x_18_3 + x_18_4 + x_18_5 + x_18_6 + x_18_7 + x_18_8
   + x_18_9 + x_18_10 + x_18_11 + x_18_12 + x_18_13 + x_18_14 + x_18_15
   + x_18_16 + x_18_17 + x_18_18 + x_18_19 + x_18_20 + x_18_21 + x_18_22
   + x_18_23 + x_18_24 + x_18_25 = 3.3554406e+07
 R18: x_19_1 + x_19_2 + x_19_3 + x_19_4 + x_19_5 + x_19_6 + x_19_7 + x_19_8
   + x_19_9 + x_19_10 + x_19_11 + x_19_12 + x_19_13 + x_19_14 + x_19_15
   + x_19_16 + x_19_17 + x_19_18 + x_19_19 + x_19_20 + x_19_21 + x_19_22
   + x_19_23 + x_19_24 + x_19_25 = 3.3554406e+07
 R19: x_20_1 + x_20_2 + x_20_3 + x_20_4 + x_20_5 + x_20_6 + x_20_7 + x_20_8
   + x_20_9 + x_20_10 + x_20_11 + x_20_12 + x_20_13 + x_20_14 + x_20_15
   + x_20_16 + x_20_17 + x_20_18 + x_20_19 + x_20_20 + x_20_21 + x_20_22
   + x_20_23 + x_20_24 + x_20_25 = 3.3554406e+07
 R20: x_21_1 + x_21_2 + x_21_3 + x_21_4 + x_21_5 + x_21_6 + x_21_7 + x_21_8
   + x_21_9 + x_21_10 + x_21_11 + x_21_12 + x_21_13 + x_21_14 + x_21_15
   + x_21_16 + x_21_17 + x_21_18 + x_21_19 + x_21_20 + x_21_21 + x_21_22
   + x_21_23 + x_21_24 + x_21_25 = 3.3554406e+07
 R21: x_22_1 + x_22_2 + x_22_3 + x_22_4 + x_22_5 + x_22_6 + x_22_7 + x_22_8
   + x_22_9 + x_22_10 + x_22_11 + x_22_12 + x_22_13 + x_22_14 + x_22_15
   + x_22_16 + x_22_17 + x_22_18 + x_22_19 + x_22_20 + x_22_21 + x_22_22
   + x_22_23 + x_22_24 + x_22_25 = 3.3554406e+07
 R22: x_23_1 + x_23_2 + x_23_3 + x_23_4 + x_23_5 + x_23_6 + x_23_7 + x_23_8
   + x_23_9 + x_23_10 + x_23_11 + x_23_12 + x_23_13 + x_23_14 + x_23_15
   + x_23_16 + x_23_17 + x_23_18 + x_23_19 + x_23_20 + x_23_21 + x_23_22
   + x_23_23 + x_23_24 + x_23_25 = 3.3554406e+07
 R23: x_24_1 + x_24_2 + x_24_3 + x_24_4 + x_24_5 + x_24_6 + x_24_7 + x_24_8
   + x_24_9 + x_24_10 + x_24_11 + x_24_12 + x_24_13 + x_24_14 + x_24_15
   + x_24_16 + x_24_17 + x_24_18 + x_24_19 + x_24_20 + x_24_21 + x_24_22
   + x_24_23 + x_24_24 + x_24_25 = 3.3554406e+07
 R24: x_25_1 + x_25_2 + x_25_3 + x_25_4 + x_25_5 + x_25_6 + x_25_7 + x_25_8
   + x_25_9 + x_25_10 + x_25_11 + x_25_12 + x_25_13 + x_25_14 + x_25_15
   + x_25_16 + x_25_17 + x_25_18 + x_25_19 + x_25_20 + x_25_21 + x_25_22
   + x_25_23 + x_25_24 + x_25_25 = 3.3554406e+07
 R25: x_1_1 + x_2_1 + x_3_1 + x_4_1 + x_5_1 + x_6_1 + x_7_1 + x_8_1 + x_9_1
   + x_10_1 + x_11_1 + x_12_1 + x_13_1 + x_14_1 + x_15_1 + x_16_1 + x_17_1
   + x_18_1 + x_19_1 + x_20_1 + x_21_1 + x_22_1 + x_23_1 + x_24_1 + x_25_1
   = 3.3554406e+07
 R26: x_1_2 + x_2_2 + x_3_2 + x_4_2 + x_5_2 + x_6_2 + x_7_2 + x_8_2 + x_9_2
   + x_10_2 + x_11_2 + x_12_2 + x_13_2 + x_14_2 + x_15_2 + x_16_2 + x_17_2
   + x_18_2 + x_19_2 + x_20_2 + x_21_2 + x_22_2 + x_23_2 + x_24_2 + x_25_2
   = 3.3554406e+07
 R27: x_1_3 + x_2_3 + x_3_3 + x_4_3 + x_5_3 + x_6_3 + x_7_3 + x_8_3 + x_9_3
   + x_10_3 + x_11_3 + x_12_3 + x_13_3 + x_14_3 + x_15_3 + x_16_3 + x_17_3
   + x_18_3 + x_19_3 + x_20_3 + x_21_3 + x_22_3 + x_23_3 + x_24_3 + x_25_3
   = 3.3554406e+07
 R28: x_1_4 + x_2_4 + x_3_4 + x_4_4 + x_5_4 + x_6_4 + x_7_4 + x_8_4 + x_9_4
   + x_10_4 + x_11_4 + x_12_4 + x_13_4 + x_14_4 + x_15_4 + x_16_4 + x_17_4
   + x_18_4 + x_19_4 + x_20_4 + x_21_4 + x_22_4 + x_23_4 + x_24_4 + x_25_4
   = 3.3554406e+07
 R29: x_1_5 + x_2_5 + x_3_5 + x_4_5 + x_5_5 + x_6_5 + x_7_5 + x_8_5 + x_9_5
   + x_10_5 + x_11_5 + x_12_5 + x_13_5 + x_14_5 + x_15_5 + x_16_5 + x_17_5
   + x_18_5 + x_19_5 + x_20_5 + x_21_5 + x_22_5 + x_23_5 + x_24_5 + x_25_5
   = 3.3554406e+07
 R30: x_1_6 + x_2_6 + x_3_6 + x_4_6 + x_5_6 + x_6_6 + x_7_6 + x_8_6 + x_9_6
   + x_10_6 + x_11_6 + x_12_6 + x_13_6 + x_14_6 + x_15_6 + x_16_6 + x_17_6
   + x_18_6 + x_19_6 + x_20_6 + x_21_6 + x_22_6 + x_23_6 + x_24_6 + x_25_6
   = 3.3554406e+07
 R31: x_1_7 + x_2_7 + x_3_7 + x_4_7 + x_5_7 + x_6_7 + x_7_7 + x_8_7 + x_9_7
   + x_10_7 + x_11_7 + x_12_7 + x_13_7 + x_14_7 + x_15_7 + x_16_7 + x_17_7
   + x_18_7 + x_19_7 + x_20_7 + x_21_7 + x_22_7 + x_23_7 + x_24_7 + x_25_7
   = 3.3554406e+07
 R32: x_1_8 + x_2_8 + x_3_8 + x_4_8 + x_5_8 + x_6_8 + x_7_8 + x_8_8 + x_9_8
   + x_10_8 + x_11_8 + x_12_8 + x_13_8 + x_14_8 + x_15_8 + x_16_8 + x_17_8
   + x_18_8 + x_19_8 + x_20_8 + x_21_8 + x_22_8 + x_23_8 + x_24_8 + x_25_8
   = 3.3554406e+07
 R33: x_1_9 + x_2_9 + x_3_9 + x_4_9 + x_5_9 + x_6_9 + x_7_9 + x_8_9 + x_9_9
   + x_10_9 + x_11_9 + x_12_9 + x_13_9 + x_14_9 + x_15_9 + x_16_9 + x_17_9
   + x_18_9 + x_19_9 + x_20_9 + x_21_9 + x_22_9 + x_23_9 + x_24_9 + x_25_9
   = 3.3554406e+07
 R34: x_1_10 + x_2_10 + x_3_10 + x_4_10 + x_5_10 + x_6_10 + x_7_10 + x_8_10
   + x_9_10 + x_10_10 + x_11_10 + x_12_10 + x_13_10 + x_14_10 + x_15_10
   + x_16_10 + x_17_10 + x_18_10 + x_19_10 + x_20_10 + x_21_10 + x_22_10
   + x_23_10 + x_24_10 + x_25_10 = 3.3554406e+07
 R35: x_1_11 + x_2_11 + x_3_11 + x_4_11 + x_5_11 + x_6_11 + x_7_11 + x_8_11
   + x_9_11 + x_10_11 + x_11_11 + x_12_11 + x_13_11 + x_14_11 + x_15_11
   + x_16_11 + x_17_11 + x_18_11 + x_19_11 + x_20_11 + x_21_11 + x_22_11
   + x_23_11 + x_24_11 + x_25_11 = 3.3554406e+07
 R36: x_1_12 + x_2_12 + x_3_12 + x_4_12 + x_5_12 + x_6_12 + x_7_12 + x_8_12
   + x_9_12 + x_10_12 + x_11_12 + x_12_12 + x_13_12 + x_14_12 + x_15_12
   + x_16_12 + x_17_12 + x_18_12 + x_19_12 + x_20_12 + x_21_12 + x_22_12
   + x_23_12 + x_24_12 + x_25_12 = 3.3554406e+07
 R37: x_1_13 + x_2_13 + x_3_13 + x_4_13 + x_5_13 + x_6_13 + x_7_13 + x_8_13
   + x_9_13 + x_10_13 + x_11_13 + x_12_13 + x_13_13 + x_14_13 + x_15_13
   + x_16_13 + x_17_13 + x_18_13 + x_19_13 + x_20_13 + x_21_13 + x_22_13
   + x_23_13 + x_24_13 + x_25_13 = 3.3554406e+07
 R38: x_1_14 + x_2_14 + x_3_14 + x_4_14 + x_5_14 + x_6_14 + x_7_14 + x_8_14
   + x_9_14 + x_10_14 + x_11_14 + x_12_14 + x_13_14 + x_14_14 + x_15_14
   + x_16_14 + x_17_14 + x_18_14 + x_19_14 + x_20_14 + x_21_14 + x_22_14
   + x_23_14 + x_24_14 + x_25_14 = 3.3554406e+07
 R39: x_1_15 + x_2_15 + x_3_15 + x_4_15 + x_5_15 + x_6_15 + x_7_15 + x_8_15
   + x_9_15 + x_10_15 + x_11_15 + x_12_15 + x_13_15 + x_14_15 + x_15_15
   + x_16_15 + x_17_15 + x_18_15 + x_19_15 + x_20_15 + x_21_15 + x_22_15
   + x_23_15 + x_24_15 + x_25_15 = 3.3554406e+07
 R40: x_1_16 + x_2_16 + x_3_16 + x_4_16 + x_5_16 + x_6_16 + x_7_16 + x_8_16
   + x_9_16 + x_10_16 + x_11_16 + x_12_16 + x_13_16 + x_14_16 + x_15_16
   + x_16_16 + x_17_16 + x_18_16 + x_19_16 + x_20_16 + x_21_16 + x_22_16
   + x_23_16 + x_24_16 + x_25_16 = 3.3554406e+07
 R41: x_1_17 + x_2_17 + x_3_17 + x_4_17 + x_5_17 + x_6_17 + x_7_17 + x_8_17
   + x_9_17 + x_10_17 + x_11_17 + x_12_17 + x_13_17 + x_14_17 + x_15_17
   + x_16_17 + x_17_17 + x_18_17 + x_19_17 + x_20_17 + x_21_17 + x_22_17
   + x_23_17 + x_24_17 + x_25_17 = 3.3554406e+07
 R42: x_1_18 + x_2_18 + x_3_18 + x_4_18 + x_5_18 + x_6_18 + x_7_18 + x_8_18
   + x_9_18 + x_10_18 + x_11_18 + x_12_18 + x_13_18 + x_14_18 + x_15_18
   + x_16_18 + x_17_18 + x_18_18 + x_19_18 + x_20_18 + x_21_18 + x_22_18
   + x_23_18 + x_24_18 + x_25_18 = 3.3554406e+07
 R43: x_1_19 + x_2_19 + x_3_19 + x_4_19 + x_5_19 + x_6_19 + x_7_19 + x_8_19
   + x_9_19 + x_10_19 + x_11_19 + x_12_19 + x_13_19 + x_14_19 + x_15_19
   + x_16_19 + x_17_19 + x_18_19 + x_19_19 + x_20_19 + x_21_19 + x_22_19
   + x_23_19 + x_24_19 + x_25_19 = 3.3554406e+07
 R44: x_1_20 + x_2_20 + x_3_20 + x_4_20 + x_5_20 + x_6_20 + x_7_20 + x_8_20
   + x_9_20 + x_10_20 + x_11_20 + x_12_20 + x_13_20 + x_14_20 + x_15_20
   + x_16_20 + x_17_20 + x_18_20 + x_19_20 + x_20_20 + x_21_20 + x_22_20
   + x_23_20 + x_24_20 + x_25_20 = 3.3554406e+07
 R45: x_1_21 + x_2_21 + x_3_21 + x_4_21 + x_5_21 + x_6_21 + x_7_21 + x_8_21
   + x_9_21 + x_10_21 + x_11_21 + x_12_21 + x_13_21 + x_14_21 + x_15_21
   + x_16_21 + x_17_21 + x_18_21 + x_19_21 + x_20_21 + x_21_21 + x_22_21
   + x_23_21 + x_24_21 + x_25_21 = 3.3554406e+07
 R46: x_1_22 + x_2_22 + x_3_22 + x_4_22 + x_5_22 + x_6_22 + x_7_22 + x_8_22
   + x_9_22 + x_10_22 + x_11_22 + x_12_22 + x_13_22 + x_14_22 + x_15_22
   + x_16_22 + x_17_22 + x_18_22 + x_19_22 + x_20_22 + x_21_22 + x_22_22
   + x_23_22 + x_24_22 + x_25_22 = 3.3554406e+07
 R47: x_1_23 + x_2_23 + x_3_23 + x_4_23 + x_5_23 + x_6_23 + x_7_23 + x_8_23
   + x_9_23 + x_10_23 + x_11_23 + x_12_23 + x_13_23 + x_14_23 + x_15_23
   + x_16_23 + x_17_23 + x_18_23 + x_19_23 + x_20_23 + x_21_23 + x_22_23
   + x_23_23 + x_24_23 + x_25_23 = 3.3554406e+07
 R48: x_1_24 + x_2_24 + x_3_24 + x_4_24 + x_5_24 + x_6_24 + x_7_24 + x_8_24
   + x_9_24 + x_10_24 + x_11_24 + x_12_24 + x_13_24 + x_14_24 + x_15_24
   + x_16_24 + x_17_24 + x_18_24 + x_19_24 + x_20_24 + x_21_24 + x_22_24
   + x_23_24 + x_24_24 + x_25_24 = 3.3554406e+07
 R49: x_1_25 + x_2_25 + x_3_25 + x_4_25 + x_5_25 + x_6_25 + x_7_25 + x_8_25
   + x_9_25 + x_10_25 + x_11_25 + x_12_25 + x_13_25 + x_14_25 + x_15_25
   + x_16_25 + x_17_25 + x_18_25 + x_19_25 + x_20_25 + x_21_25 + x_22_25
   + x_23_25 + x_24_25 + x_25_25 = 3.3554406e+07
 R50: x_1_1 + x_1_2 + x_1_3 + x_1_4 + x_1_5 + x_2_1 + x_2_2 + x_2_3 + x_2_4
   + x_2_5 + x_3_1 + x_3_2 + x_3_3 + x_3_4 + x_3_5 + x_4_1 + x_4_2 + x_4_3
   + x_4_4 + x_4_5 + x_5_1 + x_5_2 + x_5_3 + x_5_4 + x_5_5 = 3.3554406e+07
 R51: x_1_6 + x_1_7 + x_1_8 + x_1_9 + x_1_10 + x_2_6 + x_2_7 + x_2_8
   + x_2_9 + x_2_10 + x_3_6 + x_3_7 + x_3_8 + x_3_9 + x_3_10 + x_4_6
   + x_4_7 + x_4_8 + x_4_9 + x_4_10 + x_5_6 + x_5_7 + x_5_8 + x_5_9
   + x_5_10 = 3.3554406e+07
 R52: x_1_11 + x_1_12 + x_1_13 + x_1_14 + x_1_15 + x_2_11 + x_2_12 + x_2_13
   + x_2_14 + x_2_15 + x_3_11 + x_3_12 + x_3_13 + x_3_14 + x_3_15 + x_4_11
   + x_4_12 + x_4_13 + x_4_14 + x_4_15 + x_5_11 + x_5_12 + x_5_13 + x_5_14
   + x_5_15 = 3.3554406e+07
 R53: x_1_16 + x_1_17 + x_1_18 + x_1_19 + x_1_20 + x_2_16 + x_2_17 + x_2_18
   + x_2_19 + x_2_20 + x_3_16 + x_3_17 + x_3_18 + x_3_19 + x_3_20 + x_4_16
   + x_4_17 + x_4_18 + x_4_19 + x_4_20 + x_5_16 + x_5_17 + x_5_18 + x_5_19
   + x_5_20 = 3.3554406e+07
 R54: x_1_21 + x_1_22 + x_1_23 + x_1_24 + x_1_25 + x_2_21 + x_2_22 + x_2_23
   + x_2_24 + x_2_25 + x_3_21 + x_3_22 + x_3_23 + x_3_24 + x_3_25 + x_4_21
   + x_4_22 + x_4_23 + x_4_24 + x_4_25 + x_5_21 + x_5_22 + x_5_23 + x_5_24
   + x_5_25 = 3.3554406e+07
 R55: x_6_1 + x_6_2 + x_6_3 + x_6_4 + x_6_5 + x_7_1 + x_7_2 + x_7_3 + x_7_4
   + x_7_5 + x_8_1 + x_8_2 + x_8_3 + x_8_4 + x_8_5 + x_9_1 + x_9_2 + x_9_3
   + x_9_4 + x_9_5 + x_10_1 + x_10_2 + x_10_3 + x_10_4 + x_10_5
   = 3.3554406e+07
 R56: x_6_6 + x_6_7 + x_6_8 + x_6_9 + x_6_10 + x_7_6 + x_7_7 + x_7_8
   + x_7_9 + x_7_10 + x_8_6 + x_8_7 + x_8_8 + x_8_9 + x_8_10 + x_9_6
   + x_9_7 + x_9_8 + x_9_9 + x_9_10 + x_10_6 + x_10_7 + x_10_8 + x_10_9
   + x_10_10 = 3.3554406e+07
 R57: x_6_11 + x_6_12 + x_6_13 + x_6_14 + x_6_15 + x_7_11 + x_7_12 + x_7_13
   + x_7_14 + x_7_15 + x_8_11 + x_8_12 + x_8_13 + x_8_14 + x_8_15 + x_9_11
   + x_9_12 + x_9_13 + x_9_14 + x_9_15 + x_10_11 + x_10_12 + x_10_13
   + x_10_14 + x_10_15 = 3.3554406e+07
 R58: x_6_16 + x_6_17 + x_6_18 + x_6_19 + x_6_20 + x_7_16 + x_7_17 + x_7_18
   + x_7_19 + x_7_20 + x_8_16 + x_8_17 + x_8_18 + x_8_19 + x_8_20 + x_9_16
   + x_9_17 + x_9_18 + x_9_19 + x_9_20 + x_10_16 + x_10_17 + x_10_18
   + x_10_19 + x_10_20 = 3.3554406e+07
 R59: x_6_21 + x_6_22 + x_6_23 + x_6_24 + x_6_25 + x_7_21 + x_7_22 + x_7_23
   + x_7_24 + x_7_25 + x_8_21 + x_8_22 + x_8_23 + x_8_24 + x_8_25 + x_9_21
   + x_9_22 + x_9_23 + x_9_24 + x_9_25 + x_10_21 + x_10_22 + x_10_23
   + x_10_24 + x_10_25 = 3.3554406e+07
 R60: x_11_1 + x_11_2 + x_11_3 + x_11_4 + x_11_5 + x_12_1 + x_12_2 + x_12_3
   + x_12_4 + x_12_5 + x_13_1 + x_13_2 + x_13_3 + x_13_4 + x_13_5 + x_14_1
   + x_14_2 + x_14_3 + x_14_4 + x_14_5 + x_15_1 + x_15_2 + x_15_3 + x_15_4
   + x_15_5 = 3.3554406e+07
 R61: x_11_6 + x_11_7 + x_11_8 + x_11_9 + x_11_10 + x_12_6 + x_12_7
   + x_12_8 + x_12_9 + x_12_10 + x_13_6 + x_13_7 + x_13_8 + x_13_9
   + x_13_10 + x_14_6 + x_14_7 + x_14_8 + x_14_9 + x_14_10 + x_15_6
   + x_15_7 + x_15_8 + x_15_9 + x_15_10 = 3.3554406e+07
 R62: x_11_11 + x_11_12 + x_11_13 + x_11_14 + x_11_15 + x_12_11 + x_12_12
   + x_12_13 + x_12_14 + x_12_15 + x_13_11 + x_13_12 + x_13_13 + x_13_14
   + x_13_15 + x_14_11 + x_14_12 + x_14_13 + x_14_14 + x_14_15 + x_15_11
   + x_15_12 + x_15_13 + x_15_14 + x_15_15 = 3.3554406e+07
 R63: x_11_16 + x_11_17 + x_11_18 + x_11_19 + x_11_20 + x_12_16 + x_12_17
   + x_12_18 + x_12_19 + x_12_20 + x_13_16 + x_13_17 + x_13_18 + x_13_19
   + x_13_20 + x_14_16 + x_14_17 + x_14_18 + x_14_19 + x_14_20 + x_15_16
   + x_15_17 + x_15_18 + x_15_19 + x_15_20 = 3.3554406e+07
 R64: x_11_21 + x_11_22 + x_11_23 + x_11_24 + x_11_25 + x_12_21 + x_12_22
   + x_12_23 + x_12_24 + x_12_25 + x_13_21 + x_13_22 + x_13_23 + x_13_24
   + x_13_25 + x_14_21 + x_14_22 + x_14_23 + x_14_24 + x_14_25 + x_15_21
   + x_15_22 + x_15_23 + x_15_24 + x_15_25 = 3.3554406e+07
 R65: x_16_1 + x_16_2 + x_16_3 + x_16_4 + x_16_5 + x_17_1 + x_17_2 + x_17_3
   + x_17_4 + x_17_5 + x_18_1 + x_18_2 + x_18_3 + x_18_4 + x_18_5 + x_19_1
   + x_19_2 + x_19_3 + x_19_4 + x_19_5 + x_20_1 + x_20_2 + x_20_3 + x_20_4
   + x_20_5 = 3.3554406e+07
 R66: x_16_6 + x_16_7 + x_16_8 + x_16_9 + x_16_10 + x_17_6 + x_17_7
   + x_17_8 + x_17_9 + x_17_10 + x_18_6 + x_18_7 + x_18_8 + x_18_9
   + x_18_10 + x_19_6 + x_19_7 + x_19_8 + x_19_9 + x_19_10 + x_20_6
   + x_20_7 + x_20_8 + x_20_9 + x_20_10 = 3.3554406e+07
 R67: x_16_11 + x_16_12 + x_16_13 + x_16_14 + x_16_15 + x_17_11 + x_17_12
   + x_17_13 + x_17_14 + x_17_15 + x_18_11 + x_18_12 + x_18_13 + x_18_14
   + x_18_15 + x_19_11 + x_19_12 + x_19_13 + x_19_14 + x_19_15 + x_20_11
   + x_20_12 + x_20_13 + x_20_14 + x_20_15 = 3.3554406e+07
 R68: x_16_16 + x_16_17 + x_16_18 + x_16_19 + x_16_20 + x_17_16 + x_17_17
   + x_17_18 + x_17_19 + x_17_20 + x_18_16 + x_18_17 + x_18_18 + x_18_19
   + x_18_20 + x_19_16 + x_19_17 + x_19_18 + x_19_19 + x_19_20 + x_20_16
   + x_20_17 + x_20_18 + x_20_19 + x_20_20 = 3.3554406e+07
 R69: x_16_21 + x_16_22 + x_16_23 + x_16_24 + x_16_25 + x_17_21 + x_17_22
   + x_17_23 + x_17_24 + x_17_25 + x_18_21 + x_18_22 + x_18_23 + x_18_24
   + x_18_25 + x_19_21 + x_19_22 + x_19_23 + x_19_24 + x_19_25 + x_20_21
   + x_20_22 + x_20_23 + x_20_24 + x_20_25 = 3.3554406e+07
 R70: x_21_1 + x_21_2 + x_21_3 + x_21_4 + x_21_5 + x_22_1 + x_22_2 + x_22_3
   + x_22_4 + x_22_5 + x_23_1 + x_23_2 + x_23_3 + x_23_4 + x_23_5 + x_24_1
   + x_24_2 + x_24_3 + x_24_4 + x_24_5 + x_25_1 + x_25_2 + x_25_3 + x_25_4
   + x_25_5 = 3.3554406e+07
 R71: x_21_6 + x_21_7 + x_21_8 + x_21_9 + x_21_10 + x_22_6 + x_22_7
   + x_22_8 + x_22_9 + x_22_10 + x_23_6 + x_23_7 + x_23_8 + x_23_9
   + x_23_10 + x_24_6 + x_24_7 + x_24_8 + x_24_9 + x_24_10 + x_25_6
   + x_25_7 + x_25_8 + x_25_9 + x_25_10 = 3.3554406e+07
 R72: x_21_11 + x_21_12 + x_21_13 + x_21_14 + x_21_15 + x_22_11 + x_22_12
   + x_22_13 + x_22_14 + x_22_15 + x_23_11 + x_23_12 + x_23_13 + x_23_14
   + x_23_15 + x_24_11 + x_24_12 + x_24_13 + x_24_14 + x_24_15 + x_25_11
   + x_25_12 + x_25_13 + x_25_14 + x_25_15 = 3.3554406e+07
 R73: x_21_16 + x_21_17 + x_21_18 + x_21_19 + x_21_20 + x_22_16 + x_22_17
   + x_22_18 + x_22_19 + x_22_20 + x_23_16 + x_23_17 + x_23_18 + x_23_19
   + x_23_20 + x_24_16 + x_24_17 + x_24_18 + x_24_19 + x_24_20 + x_25_16
   + x_25_17 + x_25_18 + x_25_19 + x_25_20 = 3.3554406e+07
 R74: x_21_21 + x_21_22 + x_21_23 + x_21_24 + x_21_25 + x_22_21 + x_22_22
   + x_22_23 + x_22_24 + x_22_25 + x_23_21 + x_23_22 + x_23_23 + x_23_24
   + x_23_25 + x_24_21 + x_24_22 + x_24_23 + x_24_24 + x_24_25 + x_25_21
   + x_25_22 + x_25_23 + x_25_24 + x_25_25 = 3.3554406e+07
 R75: x_1_1 = 131071
 R76: x_1_3 = 1
 R77: x_1_4 = 511
 R78: x_1_6 = 4.194303e+06
 R79: x_1_7 = 127
 R80: x_1_8 = 65535
 R81: x_1_10 = 2047
 R82: x_1_11 = 0
 R83: x_1_12 = 7
 R84: x_1_13 = 31
 R85: x_1_14 = 2.097151e+06
 R86: x_1_15 = 8.388607e+06
 R87: x_1_16 = 8191
 R88: x_1_17 = 32767
 R89: x_1_18 = 16383
 R90: x_1_19 = 255
 R91: x_1_20 = 63
 R92: x_1_22 = 1023
 R93: x_1_24 = 262143
 R94: x_1_25 = 3
 R95: x_2_2 = 65535
 R96: x_2_3 = 2047
 R97: x_2_4 = 8.388607e+06
 R98: x_2_5 = 4.194303e+06
 R99: x_2_6 = 255
 R100: x_2_7 = 511
 R101: x_2_8 = 31
 R102: x_2_9 = 32767
 R103: x_2_10 = 131071
 R104: x_2_11 = 524287
 R105: x_2_12 = 262143
 R106: x_2_13 = 1023
 R107: x_2_14 = 16383
 R108: x_2_16 = 1.6777215e+07
 R109: x_2_17 = 2.097151e+06
 R110: x_2_20 = 7
 R111: x_2_22 = 0
 R112: x_2_23 = 1
 R113: x_2_25 = 63
 R114: x_3_1 = 63
 R115: x_3_3 = 262143
 R116: x_3_4 = 255
 R117: x_3_6 = 4095
 R118: x_3_7 = 16383
 R119: x_3_8 = 1.6777215e+07
 R120: x_3_9 = 8191
 R121: x_3_10 = 1
 R122: x_3_11 = 4.194303e+06
 R123: x_3_12 = 32767
 R124: x_3_13 = 3
 R125: x_3_14 = 15
 R126: x_3_17 = 8.388607e+06
 R127: x_3_18 = 127
 R128: x_3_19 = 2047
 R129: x_3_20 = 131071
 R130: x_3_22 = 65535
 R131: x_3_24 = 2.097151e+06
 R132: x_3_25 = 511
 R133: x_4_1 = 7
 R134: x_4_4 = 16383
 R135: x_4_5 = 8191
 R136: x_4_6 = 1.048575e+06
 R137: x_4_7 = 63
 R138: x_4_8 = 0
 R139: x_4_9 = 1023
 R140: x_4_10 = 3
 R141: x_4_11 = 4095
 R142: x_4_12 = 1
 R143: x_4_13 = 127
 R144: x_4_15 = 65535
 R145: x_4_16 = 524287
 R146: x_4_17 = 31
 R147: x_4_18 = 4.194303e+06
 R148: x_4_19 = 511
 R149: x_4_21 = 255
 R150: x_4_22 = 32767
 R151: x_4_23 = 15
 R152: x_4_24 = 8.388607e+06
 R153: x_4_25 = 131071
 R154: x_5_1 = 127
 R155: x_5_2 = 15
 R156: x_5_3 = 1023
 R157: x_5_4 = 32767
 R158: x_5_5 = 31
 R159: x_5_6 = 2.097151e+06
 R160: x_5_7 = 262143
 R161: x_5_9 = 7
 R162: x_5_10 = 524287
 R163: x_5_11 = 131071
 R164: x_5_12 = 1.6777215e+07
 R165: x_5_14 = 255
 R166: x_5_15 = 63
 R167: x_5_16 = 1
 R168: x_5_18 = 4095
 R169: x_5_19 = 65535
 R170: x_5_22 = 2047
 R171: x_5_23 = 1.048575e+06
 R172: x_5_24 = 16383
 R173: x_5_25 = 4.194303e+06
 R174: x_6_1 = 16383
 R175: x_6_3 = 15
 R176: x_6_4 = 1023
 R177: x_6_8 = 524287
 R178: x_6_11 = 3
 R179: x_6_12 = 0
 R180: x_6_13 = 1.048575e+06
 R181: x_6_14 = 8.388607e+06
 R182: x_6_15 = 511
 R183: x_6_16 = 2.097151e+06
 R184: x_6_17 = 4.194303e+06
 R185: x_6_18 = 8191
 R186: x_6_19 = 7
 R187: x_6_20 = 1
 R188: x_6_21 = 131071
 R189: x_6_22 = 262143
 R190: x_6_23 = 63
 R191: x_6_24 = 65535
 R192: x_6_25 = 4095
 R193: x_7_1 = 2047
 R194: x_7_2 = 131071
 R195: x_7_3 = 1.048575e+06
 R196: x_7_4 = 127
 R197: x_7_5 = 511
 R198: x_7_7 = 65535
 R199: x_7_8 = 15
 R200: x_7_9 = 31
 R201: x_7_10 = 4095
 R202: x_7_11 = 1023
 R203: x_7_13 = 262143
 R204: x_7_14 = 8191
 R205: x_7_16 = 63
 R206: x_7_18 = 0
 R207: x_7_20 = 524287
 R208: x_7_22 = 7
 R209: x_7_24 = 1
 R210: x_8_1 = 8191
 R211: x_8_2 = 255
 R212: x_8_4 = 4.194303e+06
 R213: x_8_5 = 63
 R214: x_8_6 = 511
 R215: x_8_7 = 0
 R216: x_8_8 = 262143
 R217: x_8_9 = 2.097151e+06
 R218: x_8_11 = 7
 R219: x_8_12 = 65535
 R220: x_8_13 = 15
 R221: x_8_14 = 1
 R222: x_8_16 = 32767
 R223: x_8_19 = 4095
 R224: x_8_20 = 8.388607e+06
 R225: x_8_21 = 1.048575e+06
 R226: x_8_22 = 16383
 R227: x_8_23 = 127
 R228: x_8_24 = 524287
 R229: x_9_1 = 32767
 R230: x_9_2 = 524287
 R231: x_9_3 = 2.097151e+06
 R232: x_9_4 = 7
 R233: x_9_5 = 0
 R234: x_9_7 = 4.194303e+06
 R235: x_9_8 = 16383
 R236: x_9_9 = 1
 R237: x_9_10 = 1.048575e+06
 R238: x_9_13 = 255
 R239: x_9_15 = 31
 R240: x_9_17 = 65535
 R241: x_9_18 = 262143
 R242: x_9_20 = 2047
 R243: x_9_22 = 511
 R244: x_9_23 = 8.388607e+06
 R245: x_9_24 = 15
 R246: x_10_3 = 4095
 R247: x_10_4 = 65535
 R248: x_10_5 = 8.388607e+06
 R249: x_10_7 = 7
 R250: x_10_8 = 131071
 R251: x_10_9 = 3
 R252: x_10_10 = 1.6777215e+07
 R253: x_10_11 = 32767
 R254: x_10_12 = 127
 R255: x_10_14 = 63
 R256: x_10_15 = 524287
 R257: x_10_16 = 1.048575e+06
 R258: x_10_17 = 511
 R259: x_10_18 = 15
 R260: x_10_19 = 16383
 R261: x_10_20 = 1023
 R262: x_10_22 = 255
 R263: x_10_24 = 0
 R264: x_11_1 = 1023
 R265: x_11_2 = 8.388607e+06
 R266: x_11_3 = 63
 R267: x_11_4 = 262143
 R268: x_11_5 = 1
 R269: x_11_6 = 7
 R270: x_11_7 = 2.097151e+06
 R271: x_11_8 = 8191
 R272: x_11_12 = 3
 R273: x_11_14 = 31
 R274: x_11_15 = 131071
 R275: x_11_16 = 255
 R276: x_11_18 = 65535
 R277: x_11_19 = 1.048575e+06
 R278: x_11_20 = 32767
 R279: x_11_21 = 2047
 R280: x_11_22 = 4095
 R281: x_11_24 = 4.194303e+06
 R282: x_12_2 = 1.6777215e+07
 R283: x_12_4 = 8191
 R284: x_12_5 = 15
 R285: x_12_6 = 524287
 R286: x_12_7 = 1.048575e+06
 R287: x_12_8 = 1
 R288: x_12_9 = 255
 R289: x_12_10 = 127
 R290: x_12_11 = 63
 R291: x_12_14 = 262143
 R292: x_12_15 = 1023
 R293: x_12_16 = 16383
 R294: x_12_19 = 4.194303e+06
 R295: x_12_21 = 3
 R296: x_12_22 = 131071
 R297: x_12_23 = 65535
 R298: x_12_24 = 32767
 R299: x_12_25 = 7
 R300: x_13_1 = 255
 R301: x_13_3 = 31
 R302: x_13_4 = 1.048575e+06
 R303: x_13_5 = 2047
 R304: x_13_7 = 131071
 R305: x_13_8 = 511
 R306: x_13_9 = 8.388607e+06
 R307: x_13_10 = 32767
 R308: x_13_11 = 16383
 R309: x_13_12 = 4.194303e+06
 R310: x_13_13 = 0
 R311: x_13_14 = 127
 R312: x_13_15 = 4095
 R313: x_13_18 = 1
 R314: x_13_20 = 2.097151e+06
 R315: x_13_21 = 15
 R316: x_13_22 = 1.6777215e+07
 R317: x_13_23 = 8191
 R318: x_13_24 = 63
 R319: x_13_25 = 1023
 R320: x_14_1 = 4095
 R321: x_14_4 = 524287
 R322: x_14_5 = 2.097151e+06
 R323: x_14_6 = 0
 R324: x_14_7 = 1023
 R325: x_14_9 = 2047
 R326: x_14_11 = 15
 R327: x_14_12 = 255
 R328: x_14_13 = 65535
 R329: x_14_14 = 7
 R330: x_14_16 = 127
 R331: x_14_19 = 3
 R332: x_14_20 = 511
 R333: x_14_21 = 8.388607e+06
 R334: x_14_24 = 1.048575e+06
 R335: x_14_25 = 262143
 R336: x_15_2 = 127
 R337: x_15_3 = 16383
 R338: x_15_4 = 131071
 R339: x_15_7 = 1.6777215e+07
 R340: x_15_9 = 4095
 R341: x_15_10 = 4.194303e+06
 R342: x_15_14 = 1.048575e+06
 R343: x_15_15 = 32767
 R344: x_15_19 = 63
 R345: x_15_20 = 0
 R346: x_15_21 = 2.097151e+06
 R347: x_15_22 = 31
 R348: x_15_23 = 524287
 R349: x_15_24 = 511
 R350: x_16_1 = 1.048575e+06
 R351: x_16_2 = 2047
 R352: x_16_4 = 15
 R353: x_16_5 = 65535
 R354: x_16_6 = 1
 R355: x_16_7 = 255
 R356: x_16_9 = 0
 R357: x_16_10 = 262143
 R358: x_16_11 = 8191
 R359: x_16_12 = 524287
 R360: x_16_14 = 4.194303e+06
 R361: x_16_15 = 2.097151e+06
 R362: x_16_16 = 7
 R363: x_16_17 = 16383
 R364: x_16_18 = 511
 R365: x_16_19 = 32767
 R366: x_16_21 = 127
 R367: x_16_22 = 3
 R368: x_16_23 = 131071
 R369: x_16_24 = 1.6777215e+07
 R370: x_16_25 = 31
 R371: x_17_1 = 511
 R372: x_17_2 = 1023
 R373: x_17_4 = 1
 R374: x_17_5 = 127
 R375: x_17_6 = 3
 R376: x_17_7 = 524287
 R377: x_17_9 = 131071
 R378: x_17_10 = 8191
 R379: x_17_12 = 16383
 R380: x_17_13 = 7
 R381: x_17_14 = 32767
 R382: x_17_16 = 31
 R383: x_17_17 = 262143
 R384: x_17_18 = 63
 R385: x_17_19 = 8.388607e+06
 R386: x_17_20 = 1.6777215e+07
 R387: x_17_21 = 65535
 R388: x_17_24 = 4095
 R389: x_18_1 = 524287
 R390: x_18_4 = 1.6777215e+07
 R391: x_18_5 = 255
 R392: x_18_8 = 127
 R393: x_18_9 = 65535
 R394: x_18_10 = 16383
 R395: x_18_12 = 511
 R396: x_18_13 = 1
 R397: x_18_14 = 4095
 R398: x_18_15 = 3
 R399: x_18_19 = 2.097151e+06
 R400: x_18_20 = 4.194303e+06
 R401: x_18_22 = 63
 R402: x_18_23 = 32767
 R403: x_18_24 = 7
 R404: x_19_1 = 31
 R405: x_19_3 = 7
 R406: x_19_4 = 2.097151e+06
 R407: x_19_5 = 4095
 R408: x_19_6 = 1.6777215e+07
 R409: x_19_7 = 8.388607e+06
 R410: x_19_8 = 32767
 R411: x_19_10 = 511
 R412: x_19_11 = 262143
 R413: x_19_13 = 131071
 R414: x_19_18 = 3
 R415: x_19_19 = 1
 R416: x_19_21 = 16383
 R417: x_19_22 = 8191
 R418: x_19_25 = 1.048575e+06
 R419: x_20_1 = 262143
 R420: x_20_3 = 4.194303e+06
 R421: x_20_4 = 3
 R422: x_20_5 = 32767
 R423: x_20_7 = 4095
 R424: x_20_8 = 7
 R425: x_20_9 = 63
 R426: x_20_11 = 65535
 R427: x_20_12 = 31
 R428: x_20_13 = 8.388607e+06
 R429: x_20_14 = 1.6777215e+07
 R430: x_20_16 = 131071
 R431: x_20_17 = 15
 R432: x_20_18 = 255
 R433: x_20_19 = 8191
 R434: x_20_20 = 1.048575e+06
 R435: x_20_21 = 1
 R436: x_20_22 = 524287
 R437: x_20_24 = 1023
 R438: x_20_25 = 0
 R439: x_21_1 = 4.194303e+06
 R440: x_21_2 = 7
 R441: x_21_4 = 2047
 R442: x_21_5 = 16383
 R443: x_21_6 = 1023
 R444: x_21_7 = 15
 R445: x_21_10 = 0
 R446: x_21_12 = 63
 R447: x_21_13 = 1.6777215e+07
 R448: x_21_14 = 3
 R449: x_21_15 = 1
 R450: x_21_16 = 4095
 R451: x_21_17 = 127
 R452: x_21_18 = 32767
 R453: x_21_19 = 131071
 R454: x_21_20 = 65535
 R455: x_21_21 = 511
 R456: x_21_22 = 8.388607e+06
 R457: x_21_23 = 262143
 R458: x_22_1 = 8.388607e+06
 R459: x_22_2 = 32767
 R460: x_22_4 = 0
 R461: x_22_8 = 4095
 R462: x_22_9 = 511
 R463: x_22_10 = 7
 R464: x_22_11 = 255
 R465: x_22_16 = 4.194303e+06
 R466: x_22_17 = 63
 R467: x_22_18 = 2.097151e+06
 R468: x_22_19 = 31
 R469: x_22_20 = 16383
 R470: x_22_21 = 1.6777215e+07
 R471: x_22_23 = 1023
 R472: x_22_25 = 1
 R473: x_23_1 = 2.097151e+06
 R474: x_23_2 = 1
 R475: x_23_4 = 4095
 R476: x_23_5 = 262143
 R477: x_23_6 = 131071
 R478: x_23_8 = 2047
 R479: x_23_9 = 1.6777215e+07
 R480: x_23_11 = 8.388607e+06
 R481: x_23_12 = 8191
 R482: x_23_13 = 16383
 R483: x_23_15 = 4.194303e+06
 R484: x_23_16 = 511
 R485: x_23_17 = 1.048575e+06
 R486: x_23_18 = 524287
 R487: x_23_19 = 0
 R488: x_23_20 = 255
 R489: x_23_23 = 7
 R490: x_23_24 = 31
 R491: x_23_25 = 65535
 R492: x_24_1 = 15
 R493: x_24_2 = 511
 R494: x_24_4 = 63
 R495: x_24_5 = 3
 R496: x_24_7 = 32767
 R497: x_24_8 = 255
 R498: x_24_10 = 8.388607e+06
 R499: x_24_11 = 127
 R500: x_24_12 = 1.048575e+06
 R501: x_24_14 = 65535
 R502: x_24_15 = 7
 R503: x_24_18 = 1.6777215e+07
 R504: x_24_20 = 8191
 R505: x_24_21 = 0
 R506: x_24_23 = 2.097151e+06
 R507: x_24_25 = 16383
 R508: x_25_2 = 1.048575e+06
 R509: x_25_3 = 8191
 R510: x_25_4 = 31
 R511: x_25_5 = 1023
 R512: x_25_7 = 1
 R513: x_25_9 = 524287
 R514: x_25_10 = 65535
 R515: x_25_12 = 131071
 R516: x_25_13 = 32767
 R517: x_25_14 = 511
 R518: x_25_15 = 0
 R519: x_25_16 = 8.388607e+06
 R520: x_25_17 = 3
 R521: x_25_18 = 7
 R522: x_25_19 = 262143
 R523: x_25_20 = 15
 R524: x_25_21 = 63
 R525: x_25_22 = 127
 R526: x_25_23 = 4095
 R527: x_25_24 = 255
Bounds
Generals
 x_1_1 x_1_2 x_1_3 x_1_4 x_1_5 x_1_6 x_1_7 x_1_8 x_1_9 x_1_10 x_1_11 x_1_12
 x_1_13 x_1_14 x_1_15 x_1_16 x_1_17 x_1_18 x_1_19 x_1_20 x_1_21 x_1_22
 x_1_23 x_1_24 x_1_25 x_2_1 x_2_2 x_2_3 x_2_4 x_2_5 x_2_6 x_2_7 x_2_8 x_2_9
 x_2_10 x_2_11 x_2_12 x_2_13 x_2_14 x_2_15 x_2_16 x_2_17 x_2_18 x_2_19
 x_2_20 x_2_21 x_2_22 x_2_23 x_2_24 x_2_25 x_3_1 x_3_2 x_3_3 x_3_4 x_3_5
 x_3_6 x_3_7 x_3_8 x_3_9 x_3_10 x_3_11 x_3_12 x_3_13 x_3_14 x_3_15 x_3_16
 x_3_17 x_3_18 x_3_19 x_3_20 x_3_21 x_3_22 x_3_23 x_3_24 x_3_25 x_4_1 x_4_2
 x_4_3 x_4_4 x_4_5 x_4_6 x_4_7 x_4_8 x_4_9 x_4_10 x_4_11 x_4_12 x_4_13
 x_4_14 x_4_15 x_4_16 x_4_17 x_4_18 x_4_19 x_4_20 x_4_21 x_4_22 x_4_23
 x_4_24 x_4_25 x_5_1 x_5_2 x_5_3 x_5_4 x_5_5 x_5_6 x_5_7 x_5_8 x_5_9 x_5_10
 x_5_11 x_5_12 x_5_13 x_5_14 x_5_15 x_5_16 x_5_17 x_5_18 x_5_19 x_5_20
 x_5_21 x_5_22 x_5_23 x_5_24 x_5_25 x_6_1 x_6_2 x_6_3 x_6_4 x_6_5 x_6_6
 x_6_7 x_6_8 x_6_9 x_6_10 x_6_11 x_6_12 x_6_13 x_6_14 x_6_15 x_6_16 x_6_17
 x_6_18 x_6_19 x_6_20 x_6_21 x_6_22 x_6_23 x_6_24 x_6_25 x_7_1 x_7_2 x_7_3
 x_7_4 x_7_5 x_7_6 x_7_7 x_7_8 x_7_9 x_7_10 x_7_11 x_7_12 x_7_13 x_7_14
 x_7_15 x_7_16 x_7_17 x_7_18 x_7_19 x_7_20 x_7_21 x_7_22 x_7_23 x_7_24
 x_7_25 x_8_1 x_8_2 x_8_3 x_8_4 x_8_5 x_8_6 x_8_7 x_8_8 x_8_9 x_8_10 x_8_11
 x_8_12 x_8_13 x_8_14 x_8_15 x_8_16 x_8_17 x_8_18 x_8_19 x_8_20 x_8_21
 x_8_22 x_8_23 x_8_24 x_8_25 x_9_1 x_9_2 x_9_3 x_9_4 x_9_5 x_9_6 x_9_7
 x_9_8 x_9_9 x_9_10 x_9_11 x_9_12 x_9_13 x_9_14 x_9_15 x_9_16 x_9_17 x_9_18
 x_9_19 x_9_20 x_9_21 x_9_22 x_9_23 x_9_24 x_9_25 x_10_1 x_10_2 x_10_3
 x_10_4 x_10_5 x_10_6 x_10_7 x_10_8 x_10_9 x_10_10 x_10_11 x_10_12 x_10_13
 x_10_14 x_10_15 x_10_16 x_10_17 x_10_18 x_10_19 x_10_20 x_10_21 x_10_22
 x_10_23 x_10_24 x_10_25 x_11_1 x_11_2 x_11_3 x_11_4 x_11_5 x_11_6 x_11_7
 x_11_8 x_11_9 x_11_10 x_11_11 x_11_12 x_11_13 x_11_14 x_11_15 x_11_16
 x_11_17 x_11_18 x_11_19 x_11_20 x_11_21 x_11_22 x_11_23 x_11_24 x_11_25
 x_12_1 x_12_2 x_12_3 x_12_4 x_12_5 x_12_6 x_12_7 x_12_8 x_12_9 x_12_10
 x_12_11 x_12_12 x_12_13 x_12_14 x_12_15 x_12_16 x_12_17 x_12_18 x_12_19
 x_12_20 x_12_21 x_12_22 x_12_23 x_12_24 x_12_25 x_13_1 x_13_2 x_13_3
 x_13_4 x_13_5 x_13_6 x_13_7 x_13_8 x_13_9 x_13_10 x_13_11 x_13_12 x_13_13
 x_13_14 x_13_15 x_13_16 x_13_17 x_13_18 x_13_19 x_13_20 x_13_21 x_13_22
 x_13_23 x_13_24 x_13_25 x_14_1 x_14_2 x_14_3 x_14_4 x_14_5 x_14_6 x_14_7
 x_14_8 x_14_9 x_14_10 x_14_11 x_14_12 x_14_13 x_14_14 x_14_15 x_14_16
 x_14_17 x_14_18 x_14_19 x_14_20 x_14_21 x_14_22 x_14_23 x_14_24 x_14_25
 x_15_1 x_15_2 x_15_3 x_15_4 x_15_5 x_15_6 x_15_7 x_15_8 x_15_9 x_15_10
 x_15_11 x_15_12 x_15_13 x_15_14 x_15_15 x_15_16 x_15_17 x_15_18 x_15_19
 x_15_20 x_15_21 x_15_22 x_15_23 x_15_24 x_15_25 x_16_1 x_16_2 x_16_3
 x_16_4 x_16_5 x_16_6 x_16_7 x_16_8 x_16_9 x_16_10 x_16_11 x_16_12 x_16_13
 x_16_14 x_16_15 x_16_16 x_16_17 x_16_18 x_16_19 x_16_20 x_16_21 x_16_22
 x_16_23 x_16_24 x_16_25 x_17_1 x_17_2 x_17_3 x_17_4 x_17_5 x_17_6 x_17_7
 x_17_8 x_17_9 x_17_10 x_17_11 x_17_12 x_17_13 x_17_14 x_17_15 x_17_16
 x_17_17 x_17_18 x_17_19 x_17_20 x_17_21 x_17_22 x_17_23 x_17_24 x_17_25
 x_18_1 x_18_2 x_18_3 x_18_4 x_18_5 x_18_6 x_18_7 x_18_8 x_18_9 x_18_10
 x_18_11 x_18_12 x_18_13 x_18_14 x_18_15 x_18_16 x_18_17 x_18_18 x_18_19
 x_18_20 x_18_21 x_18_22 x_18_23 x_18_24 x_18_25 x_19_1 x_19_2 x_19_3
 x_19_4 x_19_5 x_19_6 x_19_7 x_19_8 x_19_9 x_19_10 x_19_11 x_19_12 x_19_13
 x_19_14 x_19_15 x_19_16 x_19_17 x_19_18 x_19_19 x_19_20 x_19_21 x_19_22
 x_19_23 x_19_24 x_19_25 x_20_1 x_20_2 x_20_3 x_20_4 x_20_5 x_20_6 x_20_7
 x_20_8 x_20_9 x_20_10 x_20_11 x_20_12 x_20_13 x_20_14 x_20_15 x_20_16
 x_20_17 x_20_18 x_20_19 x_20_20 x_20_21 x_20_22 x_20_23 x_20_24 x_20_25
 x_21_1 x_21_2 x_21_3 x_21_4 x_21_5 x_21_6 x_21_7 x_21_8 x_21_9 x_21_10
 x_21_11 x_21_12 x_21_13 x_21_14 x_21_15 x_21_16 x_21_17 x_21_18 x_21_19
 x_21_20 x_21_21 x_21_22 x_21_23 x_21_24 x_21_25 x_22_1 x_22_2 x_22_3
 x_22_4 x_22_5 x_22_6 x_22_7 x_22_8 x_22_9 x_22_10 x_22_11 x_22_12 x_22_13
 x_22_14 x_22_15 x_22_16 x_22_17 x_22_18 x_22_19 x_22_20 x_22_21 x_22_22
 x_22_23 x_22_24 x_22_25 x_23_1 x_23_2 x_23_3 x_23_4 x_23_5 x_23_6 x_23_7
 x_23_8 x_23_9 x_23_10 x_23_11 x_23_12 x_23_13 x_23_14 x_23_15 x_23_16
 x_23_17 x_23_18 x_23_19 x_23_20 x_23_21 x_23_22 x_23_23 x_23_24 x_23_25
 x_24_1 x_24_2 x_24_3 x_24_4 x_24_5 x_24_6 x_24_7 x_24_8 x_24_9 x_24_10
 x_24_11 x_24_12 x_24_13 x_24_14 x_24_15 x_24_16 x_24_17 x_24_18 x_24_19
 x_24_20 x_24_21 x_24_22 x_24_23 x_24_24 x_24_25 x_25_1 x_25_2 x_25_3
 x_25_4 x_25_5 x_25_6 x_25_7 x_25_8 x_25_9 x_25_10 x_25_11 x_25_12 x_25_13
 x_25_14 x_25_15 x_25_16 x_25_17 x_25_18 x_25_19 x_25_20 x_25_21 x_25_22
 x_25_23 x_25_24 x_25_25
End
